p td 25 75
2 1
4 3
4 1
5 1
5 3
6 5
6 1
6 3
6 4
8 2
8 5
10 7
10 5
10 8
11 1
11 6
12 9
12 4
12 5
12 8
13 8
13 1
13 12
14 5
14 11
15 8
15 10
15 1
16 4
16 7
16 9
16 10
17 1
17 3
17 7
17 4
18 2
18 10
18 3
18 13
18 17
19 8
20 7
20 13
20 3
20 12
20 9
20 2
20 14
21 3
21 12
21 19
21 8
21 11
22 17
23 4
23 5
23 9
23 22
23 11
23 16
24 4
24 8
24 23
24 13
24 19
24 18
24 5
25 23
25 3
25 14
25 12
25 6
25 5
25 18
